NAME : single.9553.tour
COMMENT : Length = 9553
COMMENT : Found by LKH [Keld Helsgaun] Sun Dec  8 16:46:09 2024
TYPE : TOUR
DIMENSION : 31
TOUR_SECTION
1
29
28
27
31
30
26
25
24
23
22
21
20
19
18
16
17
15
14
13
12
11
10
9
8
7
6
5
3
2
4
-1
EOF
